c Created with the Wolfram Language : www.wolfram.com
c 
p edge 70 254
e 2 3
e 3 4
e 1 7
e 3 7
e 7 8
e 2 11
e 8 11
e 3 13
e 1 14
e 12 14
e 6 15
e 14 16
e 16 17
e 2 18
e 10 18
e 13 18
e 1 20
e 9 20
e 10 20
e 13 20
e 8 21
e 11 21
e 18 21
e 7 22
e 9 22
e 4 23
e 8 23
e 9 23
e 18 23
e 7 25
e 10 25
e 1 26
e 9 26
e 4 27
e 8 27
e 14 27
e 13 28
e 19 28
e 20 28
e 21 28
e 27 28
e 15 29
e 16 29
e 24 29
e 28 29
e 4 30
e 17 30
e 2 31
e 8 31
e 18 31
e 19 31
e 26 31
e 8 32
e 10 32
e 16 32
e 17 32
e 22 32
e 28 32
e 29 32
e 5 33
e 10 33
e 11 33
e 17 33
e 1 34
e 8 34
e 9 34
e 13 34
e 16 34
e 19 34
e 28 34
e 29 34
e 5 35
e 10 35
e 14 35
e 25 35
e 30 35
e 1 36
e 4 36
e 13 36
e 23 36
e 27 36
e 32 36
e 4 37
e 6 37
e 30 37
e 5 38
e 26 38
e 33 38
e 9 39
e 23 39
e 24 39
e 31 39
e 1 40
e 6 40
e 11 40
e 33 40
e 1 41
e 3 41
e 14 41
e 21 41
e 37 41
e 1 42
e 11 42
e 24 42
e 28 42
e 32 42
e 17 43
e 39 43
e 26 44
e 36 44
e 40 44
e 19 45
e 29 45
e 30 45
e 39 45
e 25 46
e 42 46
e 44 46
e 2 47
e 7 47
e 28 47
e 33 47
e 38 47
e 39 47
e 4 48
e 11 48
e 28 48
e 37 48
e 17 49
e 20 49
e 27 49
e 8 50
e 29 50
e 34 50
e 35 50
e 23 51
e 33 51
e 3 52
e 8 52
e 13 52
e 14 52
e 45 52
e 3 53
e 5 53
e 27 53
e 29 53
e 16 54
e 19 54
e 28 54
e 32 54
e 33 54
e 5 55
e 10 55
e 15 55
e 17 55
e 22 55
e 26 55
e 29 55
e 37 55
e 51 55
e 21 56
e 26 56
e 47 56
e 1 57
e 9 57
e 12 57
e 28 57
e 35 57
e 49 57
e 10 58
e 17 58
e 21 58
e 29 58
e 37 58
e 40 58
e 43 58
e 44 58
e 48 58
e 2 59
e 4 59
e 20 59
e 22 59
e 55 59
e 5 60
e 15 60
e 21 60
e 27 60
e 28 60
e 29 60
e 37 60
e 1 61
e 6 61
e 7 61
e 13 61
e 14 61
e 23 61
e 25 61
e 32 62
e 41 62
e 53 62
e 56 62
e 59 62
e 13 63
e 17 63
e 26 63
e 32 63
e 5 64
e 7 64
e 19 64
e 21 64
e 39 64
e 45 64
e 60 64
e 33 65
e 57 65
e 58 65
e 64 65
e 18 66
e 24 66
e 50 66
e 53 66
e 54 66
e 56 66
e 59 66
e 13 67
e 18 67
e 24 67
e 27 67
e 32 67
e 34 67
e 40 67
e 60 67
e 9 68
e 11 68
e 13 68
e 15 68
e 34 68
e 38 68
e 42 68
e 47 68
e 51 68
e 57 68
e 62 68
e 11 69
e 22 69
e 28 69
e 36 69
e 59 69
e 28 70
e 32 70
e 37 70
e 47 70
e 61 70
e 66 70
